unsat
(define-fun inv ((s (_ BitVec 4)) (t (_ BitVec 4))) (_ BitVec 4) (bvlshr s t))
0.04user 0.00system 0:00.04elapsed 97%CPU (0avgtext+0avgdata 26976maxresident)k
0inputs+8outputs (0major+1289minor)pagefaults 0swaps
